NAME          ClpDefau  FREE
ROWS
 N  OBJROW
 L  ZMUNI1_PCT
 L  ZMUNI2_PCT
 L  ZMUNI3_PCT
 L  ZMUNI4_PCT
 L  ZMUNI5_PCT
 L  ZMUNI6_PCT
 L  ZMUNI7_PCT
 L  ZMUNI8_PCT
 L  ZMUNI9_PCT
COLUMNS
    QMUNI1 OBJROW 1.          
    QMUNI1 ZMUNI1_PCT 29769.516   
    QMUNI1 ZMUNI2_PCT 1968.1931   
    QMUNI1 ZMUNI3_PCT 4415.1307   
    QMUNI1 ZMUNI4_PCT 3254.5089   
    QMUNI1 ZMUNI5_PCT 374.6033    
    QMUNI1 ZMUNI6_PCT 557.3273    
    QMUNI1 ZMUNI7_PCT 2391.0523   
    QMUNI1 ZMUNI8_PCT 1920.7001   
    QMUNI1 ZMUNI9_PCT 1070.0226   
    QMUNI2 OBJROW 1.          
    QMUNI2 ZMUNI1_PCT 1587.2956   
    QMUNI2 ZMUNI2_PCT 35229.1107  
    QMUNI2 ZMUNI3_PCT 2409.935    
    QMUNI2 ZMUNI4_PCT 2574.3484   
    QMUNI2 ZMUNI5_PCT  -57.2205   
    QMUNI2 ZMUNI6_PCT 46.9208     
    QMUNI2 ZMUNI7_PCT 1008.2245   
    QMUNI2 ZMUNI8_PCT 1182.9377   
    QMUNI2 ZMUNI9_PCT 942.2303    
    QMUNI3 OBJROW 1.          
    QMUNI3 ZMUNI1_PCT 4279.7089   
    QMUNI3 ZMUNI2_PCT 2758.9798   
    QMUNI3 ZMUNI3_PCT 31344.2231  
    QMUNI3 ZMUNI4_PCT 5235.2905   
    QMUNI3 ZMUNI5_PCT 231.1707    
    QMUNI3 ZMUNI6_PCT 372.696     
    QMUNI3 ZMUNI7_PCT 1900.1007   
    QMUNI3 ZMUNI8_PCT 1714.325    
    QMUNI3 ZMUNI9_PCT 1014.9002   
    QMUNI4 OBJROW 1.          
    QMUNI4 ZMUNI1_PCT 3258.5144   
    QMUNI4 ZMUNI2_PCT 3074.0738   
    QMUNI4 ZMUNI3_PCT 5478.2868   
    QMUNI4 ZMUNI4_PCT 111033.0581 
    QMUNI4 ZMUNI5_PCT  -4.0054    
    QMUNI4 ZMUNI6_PCT 144.1956    
    QMUNI4 ZMUNI7_PCT 1476.2878   
    QMUNI4 ZMUNI8_PCT 1416.0157   
    QMUNI4 ZMUNI9_PCT 900.2686    
    QMUNI5 OBJROW 1.          
    QMUNI5 ZMUNI1_PCT 111.9614    
    QMUNI5 ZMUNI2_PCT 40.0544     
    QMUNI5 ZMUNI3_PCT 77.4384     
    QMUNI5 ZMUNI4_PCT 42.3431     
    QMUNI5 ZMUNI5_PCT 37830.5435  
    QMUNI5 ZMUNI6_PCT 2835.6553   
    QMUNI5 ZMUNI7_PCT 325.3937    
    QMUNI5 ZMUNI8_PCT 172.0429    
    QMUNI5 ZMUNI9_PCT 77.0569     
    QMUNI6 OBJROW 1.          
    QMUNI6 ZMUNI1_PCT 349.8078    
    QMUNI6 ZMUNI2_PCT 237.0835    
    QMUNI6 ZMUNI3_PCT 285.7209    
    QMUNI6 ZMUNI4_PCT 204.6585    
    QMUNI6 ZMUNI5_PCT 3270.5307   
    QMUNI6 ZMUNI6_PCT 34394.6457  
    QMUNI6 ZMUNI7_PCT 901.413     
    QMUNI6 ZMUNI8_PCT 616.8366    
    QMUNI6 ZMUNI9_PCT 544.3573    
    QMUNI7 OBJROW 1.          
    QMUNI7 ZMUNI1_PCT 1300.2396   
    QMUNI7 ZMUNI2_PCT 703.6209    
    QMUNI7 ZMUNI3_PCT 1122.6654   
    QMUNI7 ZMUNI4_PCT 826.2634    
    QMUNI7 ZMUNI5_PCT 346.3745    
    QMUNI7 ZMUNI6_PCT 506.2104    
    QMUNI7 ZMUNI7_PCT 34644.6991  
    QMUNI7 ZMUNI8_PCT 2415.4663   
    QMUNI7 ZMUNI9_PCT 623.1308    
    QMUNI8 OBJROW 1.          
    QMUNI8 ZMUNI1_PCT 1371.7652   
    QMUNI8 ZMUNI2_PCT 1212.3108   
    QMUNI8 ZMUNI3_PCT 1387.2147   
    QMUNI8 ZMUNI4_PCT 1093.4829   
    QMUNI8 ZMUNI5_PCT 761.4136    
    QMUNI8 ZMUNI6_PCT 811.9584    
    QMUNI8 ZMUNI7_PCT 3251.2665   
    QMUNI8 ZMUNI8_PCT 31687.1643  
    QMUNI8 ZMUNI9_PCT 1925.4685   
    QMUNI9 OBJROW 1.          
    QMUNI9 ZMUNI1_PCT 443.8401    
    QMUNI9 ZMUNI2_PCT 832.5577    
    QMUNI9 ZMUNI3_PCT 558.281     
    QMUNI9 ZMUNI4_PCT 483.1314    
    QMUNI9 ZMUNI5_PCT  -198.1735  
    QMUNI9 ZMUNI6_PCT  -102.806   
    QMUNI9 ZMUNI7_PCT 684.3567    
    QMUNI9 ZMUNI8_PCT 1293.9453   
    QMUNI9 ZMUNI9_PCT 30561.8286  
RHS
    RHS ZMUNI1_PCT 0.0490533448
    RHS ZMUNI2_PCT  -0.5802246 
    RHS ZMUNI3_PCT  -0.51399388
    RHS ZMUNI4_PCT 2.6700495185
    RHS ZMUNI5_PCT  -1.62568621
    RHS ZMUNI6_PCT  -1.21768628
    RHS ZMUNI7_PCT  -2.79380132
    RHS ZMUNI8_PCT  -2.2250992 
    RHS ZMUNI9_PCT  -1.55416755
BOUNDS
 LO BOUND QMUNI1 -0.000703894
 UP BOUND QMUNI1      1.1e+10
 LO BOUND QMUNI2 -0.000476627
 UP BOUND QMUNI2      1.1e+10
 LO BOUND QMUNI3 -0.00053273 
 UP BOUND QMUNI3      1.1e+10
 LO BOUND QMUNI4 -0.000194953
 UP BOUND QMUNI4      1.1e+10
 LO BOUND QMUNI5 -0.000308354
 UP BOUND QMUNI5      1.1e+10
 LO BOUND QMUNI6 -0.0004679  
 UP BOUND QMUNI6      1.1e+10
 LO BOUND QMUNI7 -0.00011814 
 UP BOUND QMUNI7      1.1e+10
 LO BOUND QMUNI8 -0.000234332
 UP BOUND QMUNI8      1.1e+10
 LO BOUND QMUNI9 -0.000212071
 UP BOUND QMUNI9      1.1e+10
ENDATA
